
Gurobi 9.1.2 (win64, Java) logging started Fri Nov 12 10:04:05 2021

Academic license - for non-commercial use only - expires 2022-10-30
Gurobi Optimizer version 9.1.2 build v9.1.2rc0 (win64)
Thread count: 6 physical cores, 12 logical processors, using up to 12 threads
Optimize a model with 70 rows, 600 columns and 1200 nonzeros
Model fingerprint: 0x4b02aa92
Variable types: 0 continuous, 600 integer (600 binary)
Coefficient statistics:
  Matrix range     [1e+00, 1e+03]
  Objective range  [1e+02, 9e+02]
  Bounds range     [1e+00, 1e+00]
  RHS range        [1e+00, 3e+03]
Found heuristic solution: objective 15806.000000
Presolve removed 0 rows and 45 columns
Presolve time: 0.00s
Presolved: 70 rows, 555 columns, 1110 nonzeros
Variable types: 0 continuous, 555 integer (555 binary)
Presolved: 70 rows, 555 columns, 1110 nonzeros


Root relaxation: objective 1.862781e+04, 193 iterations, 0.00 seconds

    Nodes    |    Current Node    |     Objective Bounds      |     Work
 Expl Unexpl |  Obj  Depth IntInf | Incumbent    BestBd   Gap | It/Node Time

     0     0 18627.8104    0   13 15806.0000 18627.8104  17.9%     -    0s
H    0     0                    17882.000000 18627.8104  4.17%     -    0s
H    0     0                    18205.000273 18627.8104  2.32%     -    0s
H    0     0                    18471.000000 18627.8104  0.85%     -    0s
     0     0 18627.8104    0   22 18471.0000 18627.8104  0.85%     -    0s
     0     0 18627.8104    0   23 18471.0000 18627.8104  0.85%     -    0s
     0     0 18602.1667    0   18 18471.0000 18602.1667  0.71%     -    0s
     0     0 18602.1667    0   20 18471.0000 18602.1667  0.71%     -    0s
     0     0 18602.1667    0   31 18471.0000 18602.1667  0.71%     -    0s
     0     0 18602.1667    0   18 18471.0000 18602.1667  0.71%     -    0s
     0     2 18602.1667    0   18 18471.0000 18602.1667  0.71%     -    0s
H  459   463                    18543.000000 18600.8667  0.31%   7.6    0s
 37179 27669 18580.1154   81   16 18543.0000 18592.1895  0.27%   3.2    5s
 165460 96858 18575.4132  120   13 18543.0000 18591.7271  0.26%   3.7   10s
 242157 152264 18587.5376   84   18 18543.0000 18591.7271  0.26%   4.0   15s
 308629 199235 18565.8740   97   15 18543.0000 18591.7271  0.26%   4.1   20s
 382256 250497 18555.6861   90   18 18543.0000 18591.7271  0.26%   4.3   25s
 461696 305954 18584.3573   88   21 18543.0000 18591.7271  0.26%   4.3   30s
 546176 366375 18576.8504   99   16 18543.0000 18591.7271  0.26%   4.4   35s
 649031 437127 18547.6667   76   17 18543.0000 18591.7271  0.26%   4.4   40s
 747654 504761 18554.5000  149   14 18543.0000 18591.7271  0.26%   4.4   45s
 831803 562501 18563.0000  127   15 18543.0000 18591.7271  0.26%   4.4   50s
 927668 630997 18583.3974  128   20 18543.0000 18591.7271  0.26%   4.5   55s
 1004864 683460     cutoff  143      18543.0000 18591.7271  0.26%   4.5   60s
 1084421 728757     cutoff  118      18543.0000 18591.7271  0.26%   4.7   65s
 1161979 775981 18591.7271   87   27 18543.0000 18591.7271  0.26%   4.7   70s
 1231734 816553 18580.0769  136   17 18543.0000 18591.7271  0.26%   4.7   75s
 1300689 858668 18545.7411  106   16 18543.0000 18591.7271  0.26%   4.7   80s
 1386606 907495 18544.6817  123   18 18543.0000 18591.7271  0.26%   4.7   85s
